NAME : ClusterId_1 
COMMENT : (Gillet and Johnson) 
TYPE : CVRP 
DIMENSION : 22 
EDGE_WEIGHT_TYPE : EUC_2D 
CAPACITY : 500 
NODE_COORD_SECTION 
1 -33 33 
63 -12 42 
238 -13 38 
250 -14 44 
178 -16 36 
70 -18 34 
147 1 34 
225 -26 43 
85 7 31 
164 -28 39 
44 -7 52 
136 2 29 
158 -17 49 
83 -20 51 
224 -5 54 
123 -1 49 
117 7 -4 
127 6 -6 
226 -11 60 
236 -19 59 
124 -4 17 
119 -3 17 
DEMAND_SECTION 
1 1000
63 37
238 28
250 50
178 36
70 39
147 50
225 99
85 12
164 97
44 43
136 25
158 79
83 99
224 39
123 4
117 5
127 2
226 83
236 17
124 23
119 18
DEPOT_SECTION 
1
 -1
EOF